
Gurobi 13.0.2 (win64) logging started Thu Jul 23 14:14:32 2026

Set parameter LogFile to value "E:\codes\ExactEBRP\results\gf_gurobi_performance_recovery_round29\runs\stage1__high_imbalance_seed3202__c4_candidate__300s\external\native_logs\L2.0.0.1.0.0.0.0.1_terminal_mip.gurobi.log"
Gurobi Optimizer version 13.0.2 build v13.0.2rc1 (win64 - Windows 10.0 (19045.2))

CPU model: 12th Gen Intel(R) Core(TM) i7-12700KF, instruction set [SSE2|AVX|AVX2]
Thread count: 12 physical cores, 20 logical processors, using up to 1 threads

Non-default parameters:
TimeLimit  234.6032113
MIPGap  0
MIPGapAbs  0
LogToConsole  0
Threads  1

Optimize a model with 11895 rows, 3372 columns and 67322 nonzeros (Min)
Model fingerprint: 0x4fe8fbe2
Model has 21 linear objective coefficients
Variable types: 1683 continuous, 1689 integer (1489 binary)
Coefficient statistics:
  Matrix range     [1e-02, 2e+04]
  Objective range  [1e-02, 1e+00]
  Bounds range     [5e-01, 2e+03]
  RHS range        [5e-01, 5e+04]

Presolve removed 2401 rows and 94 columns
Presolve time: 0.19s
Presolved: 9494 rows, 3278 columns, 57991 nonzeros
Variable types: 1627 continuous, 1651 integer (1466 binary)

Root relaxation: objective 1.610508e+00, 3891 iterations, 0.20 seconds (0.50 work units)

    Nodes    |    Current Node    |     Objective Bounds      |     Work
 Expl Unexpl |  Obj  Depth IntInf | Incumbent    BestBd   Gap | It/Node Time

     0     0    1.61051    0  235          -    1.61051      -     -    0s
     0     0    1.65697    0  242          -    1.65697      -     -    0s
     0     0    1.70587    0  313          -    1.70587      -     -    1s
     0     0    1.70687    0  274          -    1.70687      -     -    1s
     0     0    1.71666    0  329          -    1.71666      -     -    1s
     0     0    1.72030    0  276          -    1.72030      -     -    1s
     0     0    1.73248    0  346          -    1.73248      -     -    2s
     0     0    1.73509    0  365          -    1.73509      -     -    2s
     0     0    1.74056    0  335          -    1.74056      -     -    2s
     0     0    1.74079    0  305          -    1.74079      -     -    2s
     0     0    1.74252    0  345          -    1.74252      -     -    3s
     0     0    1.74330    0  356          -    1.74330      -     -    3s
     0     0    1.74482    0  345          -    1.74482      -     -    3s
     0     0    1.74509    0  360          -    1.74509      -     -    3s
     0     0    1.74652    0  365          -    1.74652      -     -    4s
     0     0    1.74679    0  368          -    1.74679      -     -    4s
     0     0    1.74857    0  366          -    1.74857      -     -    4s
     0     0    1.74875    0  370          -    1.74875      -     -    5s
     0     0    1.74901    0  365          -    1.74901      -     -    5s
     0     0    1.74905    0  377          -    1.74905      -     -    5s
     0     0 infeasible    0               - infeasible      -     -    6s

Cutting planes:
  Learned: 16
  Gomory: 2
  Cover: 56
  Implied bound: 114
  Clique: 11
  MIR: 188
  StrongCG: 5
  Flow cover: 112
  Zero half: 3
  Network: 27
  RLT: 7
  Relax-and-lift: 65
  BQP: 5
  PSD: 2

Explored 1 nodes (26527 simplex iterations) in 6.09 seconds (11.84 work units)
Thread count was 1 (of 20 available processors)

Solution count 0

Model is infeasible
Best objective -, best bound -, gap -

User-callback calls 1953, time in user-callback 0.00 sec
